logs/full/feas/full-06-30-0.sol
# Objective value = 217
x0,1_4 0
x0,1_11 0
x0,1_13 0
x0,1_20 0
x0,1_24 0
x0,1_28 0
x0,1_33 0
x0,1_35 0
x0,1_37 0
x0,1_39 0
x0,1_48 0
x0,1_59 0
x0,1_61 0
x0,1_72 0
x0,2_4 0
x0,2_11 1
x0,2_13 0
x0,2_20 0
x0,2_24 0
x0,2_28 0
x0,2_33 0
x0,2_35 0
x0,2_37 0
x0,2_39 0
x0,2_48 0
x0,2_59 0
x0,2_61 0
x0,2_72 0
x0,3_4 0
x0,3_11 0
x0,3_13 0
x0,3_20 0
x0,3_24 0
x0,3_28 0
x0,3_33 0
x0,3_35 1
x0,3_37 0
x0,3_39 0
x0,3_48 0
x0,3_59 0
x0,3_61 0
x0,3_72 0
x0,4_4 0
x0,4_11 0
x0,4_13 0
x0,4_20 0
x0,4_24 0
x0,4_28 0
x0,4_33 0
x0,4_35 0
x0,4_37 0
x0,4_39 1
x0,4_48 0
x0,4_59 0
x0,4_61 0
x0,4_72 0
x0,5_4 0
x0,5_11 0
x0,5_13 0
x0,5_20 0
x0,5_24 0
x0,5_28 0
x0,5_33 0
x0,5_35 0
x0,5_37 0
x0,5_39 0
x0,5_48 0
x0,5_59 1
x0,5_61 0
x0,5_72 0
x0,6_4 0
x0,6_11 0
x0,6_13 0
x0,6_20 0
x0,6_24 0
x0,6_28 0
x0,6_33 0
x0,6_35 0
x0,6_37 0
x0,6_39 0
x0,6_48 0
x0,6_59 0
x0,6_61 0
x0,6_72 1
x1,2_4 0
x1,2_11 0
x1,2_13 0
x1,2_20 0
x1,2_24 0
x1,2_28 0
x1,2_33 0
x1,2_35 0
x1,2_37 0
x1,2_39 0
x1,2_48 0
x1,2_59 0
x1,2_61 0
x1,2_72 0
x1,3_4 0
x1,3_11 0
x1,3_13 0
x1,3_20 0
x1,3_24 0
x1,3_28 0
x1,3_33 0
x1,3_35 0
x1,3_37 0
x1,3_39 0
x1,3_48 0
x1,3_59 0
x1,3_61 0
x1,3_72 0
x1,4_4 0
x1,4_11 0
x1,4_13 0
x1,4_20 0
x1,4_24 0
x1,4_28 0
x1,4_33 0
x1,4_35 0
x1,4_37 0
x1,4_39 0
x1,4_48 0
x1,4_59 0
x1,4_61 0
x1,4_72 0
x1,5_4 0
x1,5_11 0
x1,5_13 0
x1,5_20 0
x1,5_24 0
x1,5_28 0
x1,5_33 0
x1,5_35 0
x1,5_37 0
x1,5_39 0
x1,5_48 0
x1,5_59 0
x1,5_61 0
x1,5_72 0
x1,6_4 0
x1,6_11 0
x1,6_13 0
x1,6_20 0
x1,6_24 0
x1,6_28 0
x1,6_33 0
x1,6_35 0
x1,6_37 0
x1,6_39 0
x1,6_48 0
x1,6_59 0
x1,6_61 0
x1,6_72 0
x2,3_4 0
x2,3_11 0
x2,3_13 0
x2,3_20 0
x2,3_24 1
x2,3_28 0
x2,3_33 0
x2,3_35 0
x2,3_37 0
x2,3_39 0
x2,3_48 0
x2,3_59 0
x2,3_61 0
x2,3_72 0
x2,4_4 0
x2,4_11 0
x2,4_13 0
x2,4_20 0
x2,4_24 0
x2,4_28 1
x2,4_33 0
x2,4_35 0
x2,4_37 0
x2,4_39 0
x2,4_48 0
x2,4_59 0
x2,4_61 0
x2,4_72 0
x2,5_4 0
x2,5_11 0
x2,5_13 0
x2,5_20 0
x2,5_24 0
x2,5_28 0
x2,5_33 0
x2,5_35 0
x2,5_37 0
x2,5_39 0
x2,5_48 1
x2,5_59 0
x2,5_61 0
x2,5_72 0
x2,6_4 0
x2,6_11 0
x2,6_13 0
x2,6_20 0
x2,6_24 0
x2,6_28 0
x2,6_33 0
x2,6_35 0
x2,6_37 0
x2,6_39 0
x2,6_48 0
x2,6_59 0
x2,6_61 1
x2,6_72 0
x3,4_4 1
x3,4_11 0
x3,4_13 0
x3,4_20 0
x3,4_24 0
x3,4_28 0
x3,4_33 0
x3,4_35 0
x3,4_37 0
x3,4_39 0
x3,4_48 0
x3,4_59 0
x3,4_61 0
x3,4_72 0
x3,5_4 0
x3,5_11 0
x3,5_13 0
x3,5_20 0
x3,5_24 1
x3,5_28 0
x3,5_33 0
x3,5_35 0
x3,5_37 0
x3,5_39 0
x3,5_48 0
x3,5_59 0
x3,5_61 0
x3,5_72 0
x3,6_4 0
x3,6_11 0
x3,6_13 0
x3,6_20 0
x3,6_24 0
x3,6_28 0
x3,6_33 0
x3,6_35 0
x3,6_37 1
x3,6_39 0
x3,6_48 0
x3,6_59 0
x3,6_61 0
x3,6_72 0
x4,5_4 0
x4,5_11 0
x4,5_13 0
x4,5_20 1
x4,5_24 0
x4,5_28 0
x4,5_33 0
x4,5_35 0
x4,5_37 0
x4,5_39 0
x4,5_48 0
x4,5_59 0
x4,5_61 0
x4,5_72 0
x4,6_4 0
x4,6_11 0
x4,6_13 0
x4,6_20 0
x4,6_24 0
x4,6_28 0
x4,6_33 1
x4,6_35 0
x4,6_37 0
x4,6_39 0
x4,6_48 0
x4,6_59 0
x4,6_61 0
x4,6_72 0
x5,6_4 0
x5,6_11 0
x5,6_13 1
x5,6_20 0
x5,6_24 0
x5,6_28 0
x5,6_33 0
x5,6_35 0
x5,6_37 0
x5,6_39 0
x5,6_48 0
x5,6_59 0
x5,6_61 0
x5,6_72 0
p0 0
p1 1
p2 11
p3 35
p4 39
p5 59
p6 72
