logs/full/feas/full-06-30-0.log

Gurobi 8.1.1 (win64) logging started 11/23/19 16:08:28

Changed value of parameter LogFile to logs/full/feas/full-06-30-0.log
   Prev: gurobi.log  Default: 
Changed value of parameter LogToConsole to 0
   Prev: 1  Min: 0  Max: 1  Default: 1
Changed value of parameter TimeLimit to 3600.0
   Prev: 1e+100  Min: 0.0  Max: 1e+100  Default: 1e+100
Optimize a model with 1994 rows, 936 columns and 7524 nonzeros
Variable types: 0 continuous, 936 integer (924 binary)
Coefficient statistics:
  Matrix range     [1e+00, 5e+02]
  Objective range  [1e+00, 1e+00]
  Bounds range     [1e+00, 1e+00]
  RHS range        [1e+00, 6e+02]
Presolve time: 0.01s
Presolved: 1994 rows, 936 columns, 7524 nonzeros
Variable types: 0 continuous, 936 integer (924 binary)

Root relaxation: objective 6.600000e+01, 167 iterations, 0.00 seconds

    Nodes    |    Current Node    |     Objective Bounds      |     Work
 Expl Unexpl |  Obj  Depth IntInf | Incumbent    BestBd   Gap | It/Node Time

     0     0   66.00000    0  106          -   66.00000      -     -    0s
     0     0   66.00000    0  161          -   66.00000      -     -    0s
     0     0   66.00000    0  107          -   66.00000      -     -    0s
     0     0   66.00000    0   97          -   66.00000      -     -    0s
     0     2   66.00000    0   96          -   66.00000      -     -    0s
  1600  1460 2023.00000  620  107          -   75.69814      -   4.7    5s
  1687  1521  221.00000  277  133          -   77.99821      -  52.7   10s
  1775  1581  269.00000  223  119          -   80.12824      -  80.1   15s
  1861  1643  208.00000  190  126          -   80.86825      -   101   20s
  1951  1707 1087.00000  502   97          -   82.87529      -   115   25s
 13817  9600  384.00000  591   24          -  110.00000      -  20.1   30s
 24445 18774 infeasible  664               -  110.00000      -  12.7   35s
 53273 44141  418.31587  493   44          -  118.00000      -   7.4   40s
H56842 22080                     382.0000000  119.24151  68.8%   7.1   40s
H57442 21931                     378.0000000  120.00000  68.3%   7.1   41s
 63748 25214  205.00000  589   97  378.00000  121.00000  68.0%   7.0   45s
 63855 25285  177.00000  409   53  378.00000  121.00000  68.0%   7.0   50s
 63968 25357  226.00000  146   30  378.00000  128.00000  66.1%   7.5   55s
 64446 25547  254.00000  188   26  378.00000  128.04443  66.1%   7.6   60s
H64537 24263                     310.0000000  128.04443  58.7%   7.6   60s
H64825 23094                     300.0000000  128.04443  57.3%   7.6   60s
H64897 21946                     278.0000000  128.04443  53.9%   7.6   61s
H64990 20801                     262.0000000  128.04443  51.1%   7.6   62s
 67309 21388  143.00000  171   42  262.00000  130.06611  50.4%   7.7   65s
H70907 20401                     207.0000000  135.00000  34.8%   7.7   67s
 74372 21202  158.00000  181   97  207.00000  139.00000  32.9%   7.8   77s
 74429 21240  160.47761  154  144  207.00000  139.00000  32.9%   7.8   80s
 74581 21341  186.00000  252  221  207.00000  139.00000  32.9%   7.8   85s
 74697 21419  166.00000  199  230  207.00000  140.19485  32.3%   7.8   90s
 74784 21477  165.22493  194  216  207.00000  141.49978  31.6%   7.8   95s
 74883 21543  176.00000  227  223  207.00000  142.79484  31.0%   7.7  100s
 74990 21614  147.00000  173  194  207.00000  144.08229  30.4%   7.7  105s
 75057 21659  183.00000  154  198  207.00000  144.50512  30.2%   7.7  110s
 75124 21703  176.00000  221  194  207.00000  144.67897  30.1%   7.7  115s
 75200 21754  185.47031  204  230  207.00000  145.03773  29.9%   7.7  120s
 75203 21758  145.10253  154  203  207.00000  145.10253  29.9%   8.7  125s
 75216 21754  145.24577  158  189  207.00000  145.24577  29.8%   8.8  130s
 75231 21753  194.58675  164   34  207.00000  145.62218  29.7%   8.8  135s
 75407 21767  175.00000  175   36  207.00000  145.80960  29.6%   8.9  140s
 77348 21957  163.00000  195   35  207.00000  161.00000  22.2%   9.7  145s
*77424 20843             186     206.0000000  161.00000  21.8%   9.7  145s
*78314 19705             201     203.0000000  162.00000  20.2%  10.0  146s
*79411 18400             198     202.0000000  169.00000  16.3%  10.3  148s
*79486 17316             205     197.0000000  169.00000  14.2%  10.3  149s
*79754 16227             207     194.0000000  170.00000  12.4%  10.4  149s
 80226 15856     cutoff  178       194.00000  175.00000  9.79%  10.5  150s
*80967 14113             197     189.0000000  183.00000  3.17%  10.6  150s

Cutting planes:
  Implied bound: 32
  MIR: 82
  StrongCG: 1
  Flow cover: 315
  Zero half: 5

Explored 81169 nodes (873251 simplex iterations) in 150.82 seconds
Thread count was 4 (of 4 available processors)

Solution count 10: 189 194 197 ... 300

Optimal solution found (tolerance 1.00e-04)
Best objective 1.890000000000e+02, best bound 1.890000000000e+02, gap 0.0000%

Gurobi 8.1.1 (win64) logging started 11/23/19 16:10:59

Changed value of parameter LogFile to logs/full/feas/full-06-30-0.log
   Prev: gurobi.log  Default: 
Changed value of parameter LogToConsole to 0
   Prev: 1  Min: 0  Max: 1  Default: 1
Changed value of parameter TimeLimit to 3600.0
   Prev: 1e+100  Min: 0.0  Max: 1e+100  Default: 1e+100
Optimize a model with 1094 rows, 513 columns and 4104 nonzeros
Variable types: 0 continuous, 513 integer (504 binary)
Coefficient statistics:
  Matrix range     [1e+00, 5e+02]
  Objective range  [1e+00, 1e+00]
  Bounds range     [1e+00, 1e+00]
  RHS range        [1e+00, 6e+02]
Presolve time: 0.01s
Presolved: 1094 rows, 513 columns, 4104 nonzeros
Variable types: 0 continuous, 513 integer (504 binary)

Root relaxation: objective 3.600000e+01, 182 iterations, 0.00 seconds

    Nodes    |    Current Node    |     Objective Bounds      |     Work
 Expl Unexpl |  Obj  Depth IntInf | Incumbent    BestBd   Gap | It/Node Time

     0     0   36.00000    0  144          -   36.00000      -     -    0s
     0     0   38.05952    0  156          -   38.05952      -     -    0s
     0     0   45.20939    0  116          -   45.20939      -     -    0s
     0     0   45.22010    0  119          -   45.22010      -     -    0s
     0     0   45.22010    0  118          -   45.22010      -     -    0s
     0     0   45.39530    0  118          -   45.39530      -     -    0s
     0     0   45.40525    0  121          -   45.40525      -     -    0s
     0     0   45.40525    0  126          -   45.40525      -     -    0s
     0     0   45.43104    0  115          -   45.43104      -     -    0s
     0     0   45.43104    0  115          -   45.43104      -     -    0s
     0     2   45.43104    0  103          -   45.43104      -     -    0s
H  828   652                     251.0000000   54.68752  78.2%  13.4    1s
H 4296  2350                     237.0000000  100.00000  57.8%  15.2    3s
H 5753  3140                     225.0000000  101.00000  55.1%  13.4    4s
  6141  3400  190.00000  111   28  225.00000  102.00000  54.7%  12.9    5s
H10315  5952                     223.0000000  105.00000  52.9%  11.0    8s
 12121  6564  115.00000   43   61  223.00000  113.48245  49.1%  12.1   10s
 20524  8267  180.00000  120  115  223.00000  130.00000  41.7%  10.8   18s
 20539  8277  133.00000  113  110  223.00000  130.00000  41.7%  10.7   20s
 20561  8292  167.00000   72  174  223.00000  130.00000  41.7%  10.7   25s
 20595  8314  172.00000  112  203  223.00000  130.00000  41.7%  10.7   30s
 20622  8332  162.77997   70  176  223.00000  130.00000  41.7%  10.7   35s
 20650  8351  149.06992  126  159  223.00000  131.93522  40.8%  10.7   40s
 20676  8368  209.00000  114  174  223.00000  135.06005  39.4%  10.7   45s
 20696  8382  168.00000  103  151  223.00000  136.32772  38.9%  10.7   50s
 20717  8396  199.00000  159  166  223.00000  137.38490  38.4%  10.7   55s
 20731  8405  149.00000  152  172  223.00000  137.75660  38.2%  10.6   60s
 20745  8414  138.07972   87  157  223.00000  138.07972  38.1%  10.6   65s
H20750  7993                     180.0000000  138.27843  23.2%  10.6   67s
 20762  8001  174.00000   92  157  180.00000  138.88699  22.8%  10.6   70s
 20780  8013  142.00000   52  153  180.00000  139.51037  22.5%  10.6   75s
 20793  8021  148.00000   91  172  180.00000  139.72605  22.4%  10.6   80s
 20808  8031  174.00000   62  164  180.00000  139.91568  22.3%  10.6   85s
 20831  8048  149.00000  152  160  180.00000  140.08509  22.2%  12.5   90s
 20850  8061  149.06992  126  157  180.00000  140.33592  22.0%  12.5   95s
 20869  8073  175.00000  142  146  180.00000  140.62409  21.9%  12.5  100s
 20890  8087  180.00000   97  151  180.00000  141.42197  21.4%  12.5  105s
 20909  8100  142.00345  132  155  180.00000  142.00345  21.1%  12.5  110s
 20929  8113  148.00000   74  155  180.00000  142.18370  21.0%  12.5  115s
 20947  8125  180.00000  211  166  180.00000  142.32243  20.9%  12.5  120s
 20964  8137  180.00000   87  157  180.00000  142.46753  20.9%  12.4  125s
 20983  8149  142.60951   75  164  180.00000  142.60951  20.8%  12.4  130s
 21000  8161  172.00000  111  170  180.00000  142.65700  20.7%  12.4  135s
 21018  8173  180.00000  100  169  180.00000  142.71475  20.7%  12.4  140s
 21030  8180     cutoff   49       180.00000  142.74299  20.7%  13.2  145s
 21084  8186  176.69727   61   53  180.00000  143.09636  20.5%  13.9  150s
 21318  8092  144.15713   81  103  180.00000  143.78204  20.1%  15.0  155s

Cutting planes:
  Implied bound: 6
  MIR: 139
  Flow cover: 135

Explored 21504 nodes (339049 simplex iterations) in 155.83 seconds
Thread count was 4 (of 4 available processors)

Solution count 5: 180 223 225 ... 251

Optimal solution found (tolerance 1.00e-04)
Best objective 1.800000000000e+02, best bound 1.800000000000e+02, gap 0.0000%

Gurobi 8.1.1 (win64) logging started 11/23/19 16:13:35

Changed value of parameter LogFile to logs/full/feas/full-06-30-0.log
   Prev: gurobi.log  Default: 
Changed value of parameter LogToConsole to 0
   Prev: 1  Min: 0  Max: 1  Default: 1
Changed value of parameter TimeLimit to 3600.0
   Prev: 1e+100  Min: 0.0  Max: 1e+100  Default: 1e+100
Optimize a model with 854 rows, 400 columns and 3192 nonzeros
Variable types: 0 continuous, 400 integer (392 binary)
Coefficient statistics:
  Matrix range     [1e+00, 5e+02]
  Objective range  [1e+00, 1e+00]
  Bounds range     [1e+00, 1e+00]
  RHS range        [1e+00, 6e+02]
Presolve time: 0.01s
Presolved: 854 rows, 400 columns, 3192 nonzeros
Variable types: 0 continuous, 400 integer (392 binary)

Root relaxation: objective 2.800000e+01, 199 iterations, 0.00 seconds

    Nodes    |    Current Node    |     Objective Bounds      |     Work
 Expl Unexpl |  Obj  Depth IntInf | Incumbent    BestBd   Gap | It/Node Time

     0     0   28.00000    0  177          -   28.00000      -     -    0s
     0     0   36.06464    0  107          -   36.06464      -     -    0s
     0     0   41.52369    0  113          -   41.52369      -     -    0s
     0     0   41.52369    0  111          -   41.52369      -     -    0s
     0     0   41.97365    0   88          -   41.97365      -     -    0s
     0     0   42.13862    0  115          -   42.13862      -     -    0s
     0     0   42.13862    0  114          -   42.13862      -     -    0s
     0     0   42.23761    0  118          -   42.23761      -     -    0s
     0     0   42.23761    0  120          -   42.23761      -     -    0s
     0     0   42.24943    0  120          -   42.24943      -     -    0s
     0     0   42.24943    0  111          -   42.24943      -     -    0s
     0     2   42.24943    0   99          -   42.24943      -     -    0s
H22601 13665                     392.0000000  116.00000  70.4%   5.5    4s
H22925 13672                     376.0000000  116.00000  69.1%   5.5    4s
 23654 14095 infeasible   96       376.00000  117.00000  68.9%   5.5    5s
*35616 20549              85     370.0000000  121.00000  67.3%   5.4    6s
H35656 19080                     322.0000000  121.00000  62.4%   5.4    7s
H41025 21676                     320.0000000  124.00000  61.3%   5.5    8s
H43775 18899                     253.0000000  125.00000  50.6%   5.5    8s
 50118 21506     cutoff   56       253.00000  128.00000  49.4%   5.5   10s
H50528 20051                     235.0000000  128.00000  45.5%   5.5   10s
*59890 21397              86     224.0000000  133.00000  40.6%   5.8   12s
*61420 17718              66     199.0000000  134.00000  32.7%   5.9   13s
*61421 16495              66     195.0000000  134.00000  31.3%   5.9   13s
 65849 15369 infeasible  119       195.00000  140.00000  28.2%   6.2   15s
*70295 11264              54     191.0000000  150.00000  21.5%   6.7   17s
 74976  7619     cutoff   54       191.00000  162.00000  15.2%   7.1   20s

Cutting planes:
  Gomory: 107
  MIR: 19
  StrongCG: 2
  Flow cover: 147
  Inf proof: 7
  Zero half: 3

Explored 82926 nodes (590497 simplex iterations) in 22.06 seconds
Thread count was 4 (of 4 available processors)

Solution count 10: 191 195 199 ... 376

Optimal solution found (tolerance 1.00e-04)
Best objective 1.910000000000e+02, best bound 1.910000000000e+02, gap 0.0000%

Gurobi 8.1.1 (win64) logging started 11/23/19 16:13:57

Changed value of parameter LogFile to logs/full/feas/full-06-30-0.log
   Prev: gurobi.log  Default: 
Changed value of parameter LogToConsole to 0
   Prev: 1  Min: 0  Max: 1  Default: 1
Changed value of parameter TimeLimit to 3600.0
   Prev: 1e+100  Min: 0.0  Max: 1e+100  Default: 1e+100
Optimize a model with 644 rows, 301 columns and 2394 nonzeros
Variable types: 0 continuous, 301 integer (294 binary)
Coefficient statistics:
  Matrix range     [1e+00, 5e+02]
  Objective range  [1e+00, 1e+00]
  Bounds range     [1e+00, 1e+00]
  RHS range        [1e+00, 6e+02]
Presolve time: 0.01s
Presolved: 644 rows, 301 columns, 2394 nonzeros
Variable types: 0 continuous, 301 integer (294 binary)

Root relaxation: objective 2.366667e+01, 256 iterations, 0.00 seconds

    Nodes    |    Current Node    |     Objective Bounds      |     Work
 Expl Unexpl |  Obj  Depth IntInf | Incumbent    BestBd   Gap | It/Node Time

     0     0   23.66667    0  167          -   23.66667      -     -    0s
     0     0   33.81340    0  113          -   33.81340      -     -    0s
     0     0   33.81340    0  113          -   33.81340      -     -    0s
     0     0   38.37039    0  150          -   38.37039      -     -    0s
     0     0   39.67618    0  114          -   39.67618      -     -    0s
     0     0   39.95964    0  114          -   39.95964      -     -    0s
     0     0   39.95964    0  116          -   39.95964      -     -    0s
     0     0   40.24330    0  158          -   40.24330      -     -    0s
     0     0   40.36680    0  120          -   40.36680      -     -    0s
     0     0   40.38001    0  123          -   40.38001      -     -    0s
     0     0   40.38574    0  125          -   40.38574      -     -    0s
     0     0   40.59303    0  160          -   40.59303      -     -    0s
     0     0   40.98920    0  131          -   40.98920      -     -    0s
     0     0   41.14025    0  173          -   41.14025      -     -    0s
     0     0   41.16446    0  177          -   41.16446      -     -    0s
     0     0   41.16731    0  180          -   41.16731      -     -    0s
     0     0   43.36933    0  151          -   43.36933      -     -    0s
     0     0   43.52003    0  152          -   43.52003      -     -    0s
     0     0   43.53081    0  151          -   43.53081      -     -    0s
     0     0   44.81235    0  138          -   44.81235      -     -    0s
     0     0   45.30618    0  158          -   45.30618      -     -    0s
     0     0   45.45396    0  149          -   45.45396      -     -    0s
     0     0   45.47245    0  145          -   45.47245      -     -    0s
     0     0   45.53302    0  148          -   45.53302      -     -    0s
     0     0   45.54499    0  150          -   45.54499      -     -    0s
     0     0   46.21333    0  141          -   46.21333      -     -    0s
     0     0   46.25145    0  154          -   46.25145      -     -    0s
     0     0   46.25972    0  156          -   46.25972      -     -    0s
     0     0   46.38242    0  139          -   46.38242      -     -    0s
     0     0   46.38242    0  134          -   46.38242      -     -    0s
H    0     0                     217.0000000   46.38242  78.6%     -    0s
     0     2   46.38242    0  131  217.00000   46.38242  78.6%     -    0s
 10298  4686  134.43802   46   45  217.00000  126.00000  41.9%  15.4    5s
 20460  7484  162.94789  127  134  217.00000  145.00000  33.2%  13.7   13s
 20493  7506  163.00000   77  106  217.00000  145.00000  33.2%  13.7   15s
 20570  7541  145.00000   29   86  217.00000  145.00000  33.2%  14.0   20s
 25073  8141  192.72249   36   41  217.00000  145.00000  33.2%  16.7   25s
 31521  5418     cutoff   30       217.00000  178.00000  18.0%  18.8   30s

Cutting planes:
  Gomory: 7
  Implied bound: 13
  MIR: 18
  Flow cover: 46
  Zero half: 1

Explored 34808 nodes (653530 simplex iterations) in 31.70 seconds
Thread count was 4 (of 4 available processors)

Solution count 1: 217 

Optimal solution found (tolerance 1.00e-04)
Best objective 2.170000000000e+02, best bound 2.170000000000e+02, gap 0.0000%
